
******************************************************************************
This program contains Ipopt, a library for large-scale nonlinear optimization.
 Ipopt is released as open source code under the Eclipse Public License (EPL).
         For more information visit https://github.com/coin-or/Ipopt
******************************************************************************

This is Ipopt version 3.14.19, running with linear solver MUMPS 5.8.1.

Number of nonzeros in equality constraint Jacobian...:     4389
Number of nonzeros in inequality constraint Jacobian.:        0
Number of nonzeros in Lagrangian Hessian.............:     1050

Total number of variables............................:     1287
                     variables with only lower bounds:        0
                variables with lower and upper bounds:      457
                     variables with only upper bounds:        0
Total number of equality constraints.................:     1274
Total number of inequality constraints...............:        0
        inequality constraints with only lower bounds:        0
   inequality constraints with lower and upper bounds:        0
        inequality constraints with only upper bounds:        0

iter    objective    inf_pr   inf_du lg(mu)  ||d||  lg(rg) alpha_du alpha_pr  ls
   0  9.8482726e+00 9.90e+01 1.90e-04  -1.0 0.00e+00    -  0.00e+00 0.00e+00   0
   1  9.8935176e+00 1.26e+01 1.79e+01  -1.0 9.85e+01    -  5.08e-02 1.00e+00h  1
   2  9.8815898e+00 1.47e+00 7.47e-02  -1.0 4.90e+00    -  9.33e-01 1.00e+00h  1
   3  9.8828980e+00 8.88e-02 3.38e-01  -1.0 2.44e+00    -  5.97e-01 1.00e+00h  1
   4  9.9191545e+00 4.38e-01 1.26e+00  -1.0 2.56e+00    -  9.96e-01 2.66e-01h  2
   5  1.0126778e+01 1.49e+00 2.40e-02  -1.0 1.57e+00    -  1.00e+00 1.00e+00h  1
   6  1.0091975e+01 1.31e-01 3.52e-04  -1.0 4.28e-01    -  1.00e+00 1.00e+00h  1
   7  9.9203196e+00 5.30e-01 6.44e-01  -2.5 1.21e+00    -  7.10e-01 1.00e+00h  1
   8  9.8645388e+00 9.85e-01 7.76e-03  -2.5 1.07e+00    -  9.99e-01 1.00e+00h  1
   9  9.8577221e+00 5.56e-01 8.00e-04  -2.5 1.38e+00    -  1.00e+00 1.00e+00h  1
iter    objective    inf_pr   inf_du lg(mu)  ||d||  lg(rg) alpha_du alpha_pr  ls
  10  9.8574140e+00 1.85e-02 4.17e-06  -2.5 6.29e-01    -  1.00e+00 1.00e+00h  1
  11  9.8562944e+00 1.83e-01 5.77e-03  -3.8 9.10e-01    -  9.45e-01 1.00e+00h  1
  12  9.8495229e+00 5.13e-03 2.02e-03  -3.8 2.91e+00    -  1.00e+00 1.00e+00h  1
  13  9.8508139e+00 1.02e-04 6.99e-05  -3.8 5.12e-01    -  1.00e+00 1.00e+00h  1
  14  9.8483179e+00 2.13e-04 5.09e-04  -5.7 1.15e+00    -  7.13e-01 1.00e+00h  1
  15  9.8482123e+00 1.43e-04 9.87e-04  -5.7 4.06e-01    -  6.88e-01 3.31e-01h  1
  16  9.8481919e+00 1.16e-04 6.44e-03  -5.7 2.20e-01    -  1.00e+00 1.91e-01f  1
  17  9.8482102e+00 1.88e-05 1.72e-08  -5.7 1.14e-02    -  1.00e+00 1.00e+00f  1
  18  9.8482091e+00 3.36e-10 6.75e-11  -5.7 1.76e-03    -  1.00e+00 1.00e+00h  1
  19  9.8482049e+00 1.38e-07 1.95e-04  -8.6 3.81e-03    -  9.95e-01 8.88e-01h  1
iter    objective    inf_pr   inf_du lg(mu)  ||d||  lg(rg) alpha_du alpha_pr  ls
  20  9.8482049e+00 2.98e-09 2.56e-12  -8.6 1.42e-04    -  1.00e+00 1.00e+00h  1

Number of Iterations....: 20

                                   (scaled)                 (unscaled)
Objective...............:   9.8482049288136437e+00    9.8482049288136437e+00
Dual infeasibility......:   2.5620716485874606e-12    2.5620716485874606e-12
Constraint violation....:   2.9770781395655190e-09    2.9770781395655190e-09
Variable bound violation:   0.0000000000000000e+00    0.0000000000000000e+00
Complementarity.........:   2.5111276160438676e-09    2.5111276160438676e-09
Overall NLP error.......:   2.9770781395655190e-09    2.9770781395655190e-09


Number of objective function evaluations             = 24
Number of objective gradient evaluations             = 21
Number of equality constraint evaluations            = 24
Number of inequality constraint evaluations          = 0
Number of equality constraint Jacobian evaluations   = 21
Number of inequality constraint Jacobian evaluations = 0
Number of Lagrangian Hessian evaluations             = 20
Total seconds in IPOPT                               = 0.095

EXIT: Optimal Solution Found.
